StudentsNr = 10;
InstructorsNr = 72;
DaysNr = 1;
SlotsPerDay = 40;
AvailabilitySlotsLenght = 40;
RoomNr = 2;
ProgrammNr = 1;
DegreeNr = 2;
RolesNr = 4;
CoursesNr = 7;
InstructorsProgramm = [{1}, {1}, {1}, {1}, {1}, {1}, {1}, {1}, {1}, {1}, {1}, {1}, {1}, {1}, {1}, {1}, {1}, {1}, {1}, {1}, {1}, {1}, {1}, {1}, {1}, {1}, {1}, {1}, {1}, {1}, {1}, {1}, {1}, {1}, {1}, {1}, {1}, {1}, {1}, {1}, {1}, {1}, {1}, {1}, {1}, {1}, {1}, {1}, {1}, {1}, {1}, {1}, {1}, {1}, {1}, {1}, {1}, {1}, {1}, {1}, {1}, {1}, {1}, {1}, {1}, {1}, {1}, {1}, {1}, {1}, {1}, {1}];
InstructorRolesPerProgramm = [|{3, 4, 5, 7, 12, 13, 15, 19, 21, 23, 26, 27, 29, 30, 34, 36, 42, 44, 48, 52, 54, 60, 63, 64, 66, 67, 68, 69}, {1, 2, 3, 4, 8, 10, 11, 14, 19, 20, 21, 23, 25, 27, 28, 29, 30, 34, 35, 40, 41, 46, 49, 53, 55, 60, 67, 68, 72}, {2, 7, 9, 10, 13, 15, 17, 20, 23, 26, 27, 28, 29, 31, 34, 38, 42, 45, 46, 50, 51, 53, 54, 55, 57, 59, 64, 68, 69, 71, 72}, {2, 3, 4, 7, 8, 9, 11, 20, 21, 26, 28, 38, 41, 43, 48, 51, 52, 53, 55, 56, 57, 58, 65, 66}|];
InstructorsAvailability = [|1, |0, |0, |1, |1, |0, |1, |0, |1, |0, |0, |1, |0, |0, |1, |0, |1, |0, |0, |1, |0, |0, |1, |1, |1, |1, |1, |0, |0, |1, |1, |1, |1, |0, |1, |0, |1, |0, |0, |1, |1, |1, |0, |1, |1, |0, |1, |1, |1, |0, |1, |1, |1, |0, |0, |1, |0, |1, |0, |0, |0, |0, |1, |0, |1, |1, |1, |1, |0, |1, |1, |0|];
StudentsProgramm = [1, 1, 1, 1, 1, 1, 1, 1, 1, 1];
StudentsDegree = [2, 2, 1, 2, 2, 2, 1, 2, 1, 1];
StudentsSupervisorId = [8, 57, 2, 39, 23, 62, 10, 16, 7, 23];
StudentsCourseIds = [{2, 5}, {1, 4}, {3, 4, 5, 6, 7}, {3, 6}, {1, 6}, {1, 2}, {1, 2, 3, 5, 7}, {1, 2}, {1, 2, 3, 4, 6}, {2, 3, 4, 5, 7}];
StudentsAvailability = [|1, |0, |0, |1, |1, |1, |0, |0, |0, |1|];
TheoryticalMinCard = [0, 0, 0, 1, 0, 1, 0, 1, 0, 0];
CoursesInstructorIds = [{3, 9, 11, 12, 14, 23, 29, 33, 34, 35, 40, 41, 44, 45, 53, 54, 55, 56, 59, 68, 70, 72}, {2, 23, 42, 52}, {4, 8, 11, 13, 17, 23, 32, 34, 38, 42, 49, 55, 61, 70, 71, 72}, {1, 2, 3, 5, 6, 7, 10, 11, 13, 14, 15, 16, 18, 19, 22, 23, 24, 25, 26, 27, 31, 32, 33, 34, 35, 36, 38, 40, 44, 45, 46, 48, 49, 55, 58, 63, 65, 66, 67, 68, 69, 70}, {2, 3, 11, 13, 15, 16, 19, 21, 22, 25, 28, 29, 30, 33, 34, 37, 40, 42, 43, 45, 50, 52, 54, 56, 58, 60, 61, 63, 65, 67, 69, 71, 72}, {3, 6, 8, 9, 14, 16, 19, 21, 25, 28, 30, 42, 43, 44, 45, 46, 49, 53, 57, 59, 62, 69, 72}, {1, 2, 3, 4, 5, 7, 8, 9, 10, 11, 12, 13, 15, 16, 17, 18, 21, 22, 23, 26, 27, 28, 29, 30, 31, 32, 35, 38, 39, 40, 41, 42, 43, 44, 47, 49, 51, 56, 57, 59, 60, 62, 65, 68, 69, 70, 71}];
RolesDemands = [9, 17, 16, 15];
RolesContinuity = [3, 2];
ExamLen = [1, 1, 2, 1, 1, 1, 2, 1, 2, 2];
LunchTsMinLen = 0;
LunchStarts = [20..24];
SupervisorAvailable = 0;
OptimalLunchLenght = [3, 1];
OptimalStartTs = [2, 0];
OptimalFinishTs = [2, 40];
MinimizeRooms = 0;
RolesSoftContinuity = [|1, 2, 3, 4|3, 0, 3, 0|];
SameDegreeInRoom = 0;
Mergeability = 1;
